&GLOBAL
  PRINT_LEVEL medium
  PROJECT_NAME SnO2
  RUN_TYPE GEO_OPT
  WALLTIME 86000
&END GLOBAL
&MOTION
  &CELL_OPT
    KEEP_ANGLES .TRUE.
  &END CELL_OPT
&END MOTION
&FORCE_EVAL
  METHOD Quickstep
  STRESS_TENSOR ANALYTICAL
  &DFT
    POTENTIAL_FILE_NAME GTH_POTENTIALS
    BASIS_SET_FILE_NAME BASIS_MOLOPT
    &SCF
      MAX_SCF 50
      EPS_SCF 1.0E-6
      &OT
        MINIMIZER DIIS
        PRECONDITIONER FULL_SINGLE_INVERSE
        ENERGY_GAP 0.1
      &END OT
      &OUTER_SCF
        EPS_SCF 1.0E-6
        MAX_SCF 10
      &END OUTER_SCF
    &END SCF
    &QS
      EPS_DEFAULT 1.0E-13
      EXTRAPOLATION ASPC
      EXTRAPOLATION_ORDER 2
    &END QS
    &MGRID
      NGRIDS 4
      CUTOFF 400
      REL_CUTOFF 60
    &END MGRID
    &XC
      &XC_FUNCTIONAL PBE
      &END XC_FUNCTIONAL
      &VDW_POTENTIAL
        POTENTIAL_TYPE PAIR_POTENTIAL
        &PAIR_POTENTIAL
          TYPE DFTD3
          PARAMETER_FILE_NAME dftd3.dat
          REFERENCE_FUNCTIONAL PBE
        &END PAIR_POTENTIAL
      &END VDW_POTENTIAL
    &END XC
    &PRINT
      &V_HARTREE_CUBE
        ADD_LAST NUMERIC
        COMMON_ITERATION_LEVELS 0
        APPEND .TRUE.
        &EACH
          GEO_OPT 0
        &END EACH
      &END V_HARTREE_CUBE
      &PDOS
        ADD_LAST NUMERIC
        COMMON_ITERATION_LEVELS 0
        COMPONENTS 
        APPEND .TRUE.
        NLUMO -1
        &EACH
          GEO_OPT 0
        &END EACH
      &END PDOS
    &END PRINT
  &END DFT
  &SUBSYS
    &CELL
      A 13.644 0.0 0.0
      B 0.0 13.061 0.0
      C 0.0 0.0 28.325
      PERIODIC XYZ
    &END CELL
    &COORD
      O 4.67934624 1.632625 9.9868285
      O 2.14238088 1.632625 9.9868285
      O 6.822 3.26511939 8.741095
      Sn 6.82172712 1.632625 9.9426415
      Sn 3.411 3.26511939 10.240054
      O 1.3521204 1.632625 13.5308525
      O 5.46960672 1.63249439 13.53113575
      O 3.411 3.26511939 12.25821025
      O 6.822 3.26511939 11.4132755
      Sn 3.41086356 1.632625 13.56399275
      Sn 6.82186356 3.26511939 13.5081925
      O 4.67866404 1.63275561 17.1507875
      O 2.14292664 1.63236378 17.15050425
      O 6.82172712 3.26511939 15.596878
      O 3.41072712 3.26511939 14.8745905
      Sn 13.64386356 1.632625 17.068645
      Sn 3.411 3.26511939 16.89841175
      O 6.82186356 3.26511939 18.258295
      O 4.67934624 4.897875 9.9868285
      O 2.14238088 4.89761378 9.9868285
      O 6.82159068 6.53036939 8.741095
      Sn 6.82186356 4.89774439 9.9426415
      Sn 3.41086356 6.53036939 10.240054
      O 1.3521204 4.897875 13.53113575
      O 5.46960672 4.89761378 13.53113575
      O 3.41086356 6.53036939 12.25821025
      O 6.82172712 6.53036939 11.4132755
      Sn 3.41086356 4.89774439 13.56399275
      Sn 6.82172712 6.53036939 13.5081925
      O 4.67880048 4.89800561 17.1507875
      O 2.14306308 4.89748317 17.1507875
      O 6.82186356 6.53036939 15.596878
      O 3.41086356 6.53036939 14.8745905
      Sn 0.00013644 4.89774439 17.068645
      Sn 3.41072712 6.53036939 16.89841175
      O 6.82118136 6.53036939 18.258295
      O 4.67948268 8.16286378 9.9868285
      O 2.14251732 8.16299439 9.9868285
      O 6.82159068 9.79548878 8.741095
      Sn 6.82186356 8.16286378 9.9426415
      Sn 3.41086356 9.79548878 10.240054
      O 1.35225684 8.16286378 13.53113575
      O 5.46974316 8.16299439 13.53113575
      O 3.41086356 9.79548878 12.25821025
      O 6.82172712 9.79548878 11.4132755
      Sn 3.411 8.16286378 13.56399275
      Sn 6.82172712 9.79548878 13.5081925
      O 4.67880048 8.16273317 17.1507875
      O 2.14319952 8.163125 17.1507875
      O 6.82186356 9.79548878 15.596878
      O 3.411 9.79548878 14.8745905
      Sn 0.00013644 8.16286378 17.068645
      Sn 3.41086356 9.79548878 16.89841175
      O 6.82172712 9.79548878 18.258295
      O 4.67934624 11.42798317 9.9868285
      O 2.14238088 11.42824439 9.9868285
      O 6.822 13.06060817 8.741095
      Sn 6.82186356 11.42811378 9.9426415
      Sn 3.411 13.06060817 10.240054
      O 1.3521204 11.42798317 13.53113575
      O 5.46960672 11.42824439 13.53113575
      O 3.411 13.06060817 12.25821025
      O 6.822 13.06060817 11.4132755
      Sn 3.41086356 11.42811378 13.56399275
      Sn 6.82186356 13.06060817 13.5081925
      O 4.67866404 11.42785256 17.1507875
      O 2.14292664 11.428375 17.15050425
      O 6.82186356 13.06060817 15.596878
      O 3.411 13.06060817 14.8745905
      Sn 13.64386356 11.42811378 17.068645
      Sn 3.41113644 13.06060817 16.89841175
      O 6.82240932 13.06073878 18.258295
      O 11.5012098 1.632625 9.9868285
      O 8.964108 1.632625 9.9868285
      O 13.64372712 3.26511939 8.741095
      Sn 13.64359068 1.632625 9.9426415
      Sn 10.23272712 3.26511939 10.240054
      O 8.17398396 1.632625 13.53113575
      O 12.29147028 1.63249439 13.53113575
      O 10.23286356 3.26511939 12.25821025
      O 13.64372712 3.26511939 11.4132755
      Sn 10.23259068 1.632625 13.56399275
      Sn 13.64372712 3.26511939 13.5081925
      O 11.50039116 1.63275561 17.1507875
      O 8.9647902 1.63236378 17.15050425
      O 13.64359068 3.26511939 15.596878
      O 10.23259068 3.26511939 14.8745905
      Sn 6.82159068 1.632625 17.068645
      Sn 10.23272712 3.26511939 16.89841175
      O 13.64372712 3.26511939 18.258295
      O 11.5012098 4.897875 9.9868285
      O 8.96424444 4.89761378 9.9868285
      O 13.64345424 6.53036939 8.741095
      Sn 13.64359068 4.89774439 9.9426415
      Sn 10.23259068 6.53036939 10.240054
      O 8.17398396 4.897875 13.53113575
      O 12.29147028 4.89761378 13.53113575
      O 10.23259068 6.53036939 12.25821025
      O 13.64345424 6.53036939 11.4132755
      Sn 10.23272712 4.89774439 13.56399275
      Sn 13.64359068 6.53036939 13.5081925
      O 11.50066404 4.89800561 17.15050425
      O 8.96492664 4.89748317 17.15050425
      O 13.64359068 6.53036939 15.596878
      O 10.23259068 6.53036939 14.8745905
      Sn 6.822 4.89774439 17.068645
      Sn 10.23259068 6.53036939 16.89841175
      O 13.64304492 6.53036939 18.258295
      O 11.5012098 8.16286378 9.9868285
      O 8.96424444 8.16286378 9.9868285
      O 13.64345424 9.79548878 8.741095
      Sn 13.64372712 8.16286378 9.9426415
      Sn 10.23259068 9.79548878 10.24033725
      O 8.17398396 8.16286378 13.53113575
      O 12.29147028 8.16299439 13.53113575
      O 10.23259068 9.79548878 12.25821025
      O 13.64359068 9.79548878 11.4132755
      Sn 10.23286356 8.16286378 13.56399275
      Sn 13.64359068 9.79548878 13.5081925
      O 11.50066404 8.16273317 17.15050425
      O 8.96492664 8.163125 17.1507875
      O 13.64372712 9.79548878 15.596878
      O 10.23286356 9.79548878 14.8745905
      Sn 6.822 8.16286378 17.068645
      Sn 10.23272712 9.79548878 16.89841175
      O 13.64359068 9.79548878 18.258295
      O 11.5012098 11.42798317 9.9868285
      O 8.96424444 11.42824439 9.9868285
      O 13.64386356 13.06060817 8.741095
      Sn 13.64359068 11.42811378 9.9426415
      Sn 10.23286356 13.06060817 10.240054
      O 8.17398396 11.42798317 13.53113575
      O 12.29147028 11.42824439 13.53113575
      O 10.23286356 13.06060817 12.25821025
      O 13.64372712 13.06073878 11.4132755
      Sn 10.23272712 11.42811378 13.56399275
      Sn 13.64372712 13.06060817 13.5081925
      O 11.5005276 11.42785256 17.15050425
      O 8.9647902 11.428375 17.15050425
      O 13.64359068 13.06060817 15.596878
      O 10.23272712 13.06060817 14.8745905
      Sn 6.82159068 11.42811378 17.068645
      Sn 10.23286356 13.06060817 16.89841175
      O 0.00013644 13.06060817 18.258295
      O 10.23259068 6.53036939 18.89841175
      H 9.27124507 6.64840672 18.89841175
      H 10.35062801 5.56902378 18.89841175
      O 10.23259068 6.53036939 8.240054
      H 10.11455335 5.56902378 8.240054
      H 11.19393629 6.64840672 8.240054
    &END COORD
    &KIND H
      POTENTIAL GTH-PBE-q1
      BASIS_SET DZVP-MOLOPT-SR-GTH
    &END KIND
    &KIND O
      POTENTIAL GTH-PBE-q6
      BASIS_SET DZVP-MOLOPT-SR-GTH
    &END KIND
    &KIND Sn
      POTENTIAL GTH-PBE-q4
      BASIS_SET DZVP-MOLOPT-SR-GTH
    &END KIND
  &END SUBSYS
  &PRINT
    &FORCES ON
    &END FORCES
    &STRESS_TENSOR ON
    &END STRESS_TENSOR
  &END PRINT
&END FORCE_EVAL
