&GLOBAL
  PRINT_LEVEL medium
  PROJECT_NAME SnO2
  RUN_TYPE GEO_OPT
  WALLTIME 86000
&END GLOBAL
&MOTION
  &CELL_OPT
    KEEP_ANGLES .TRUE.
  &END CELL_OPT
&END MOTION
&FORCE_EVAL
  METHOD Quickstep
  STRESS_TENSOR ANALYTICAL
  &DFT
    POTENTIAL_FILE_NAME GTH_POTENTIALS
    BASIS_SET_FILE_NAME BASIS_MOLOPT
    &SCF
      MAX_SCF 50
      EPS_SCF 1.0E-6
      &OT
        MINIMIZER DIIS
        PRECONDITIONER FULL_SINGLE_INVERSE
        ENERGY_GAP 0.1
      &END OT
      &OUTER_SCF
        EPS_SCF 1.0E-6
        MAX_SCF 10
      &END OUTER_SCF
    &END SCF
    &QS
      EPS_DEFAULT 1.0E-13
      EXTRAPOLATION ASPC
      EXTRAPOLATION_ORDER 2
    &END QS
    &MGRID
      NGRIDS 4
      CUTOFF 400
      REL_CUTOFF 60
    &END MGRID
    &XC
      &XC_FUNCTIONAL PBE
      &END XC_FUNCTIONAL
      &VDW_POTENTIAL
        POTENTIAL_TYPE PAIR_POTENTIAL
        &PAIR_POTENTIAL
          TYPE DFTD3
          PARAMETER_FILE_NAME dftd3.dat
          REFERENCE_FUNCTIONAL PBE
        &END PAIR_POTENTIAL
      &END VDW_POTENTIAL
    &END XC
    &PRINT
      &V_HARTREE_CUBE
        ADD_LAST NUMERIC
        COMMON_ITERATION_LEVELS 0
        APPEND .TRUE.
        &EACH
          GEO_OPT 0
        &END EACH
      &END V_HARTREE_CUBE
      &PDOS
        ADD_LAST NUMERIC
        COMMON_ITERATION_LEVELS 0
        COMPONENTS 
        APPEND .TRUE.
        NLUMO -1
        &EACH
          GEO_OPT 0
        &END EACH
      &END PDOS
    &END PRINT
  &END DFT
  &SUBSYS
    &CELL
      A 13.644 0.0 0.0
      B 0.0 13.061 0.0
      C 0.0 0.0 35.147
      PERIODIC XYZ
    &END CELL
    &COORD
      O 4.68016488 1.632625 9.92340398
      O 2.14156224 1.632625 9.92340398
      O 0.0 3.26511939 8.70696631
      Sn 6.82186356 1.632625 9.89985549
      Sn 3.41086356 3.26511939 10.19368441
      O 1.33683912 1.632625 13.5034774
      O 5.48502444 1.632625 13.5034774
      O 3.41086356 3.26511939 12.20620163
      O 6.82186356 3.26511939 11.37602949
      Sn 3.411 1.632625 13.54776262
      Sn 6.82186356 3.26511939 13.44583632
      O 4.71795876 1.632625 16.91660257
      O 2.1039048 1.632625 16.91660257
      O 6.82186356 3.26511939 15.56590336
      O 3.41086356 3.26511939 14.81727226
      Sn 0.0 1.632625 16.90430112
      Sn 3.41086356 3.26511939 16.89235114
      O 1.33451964 1.632625 20.33394538
      O 5.48734392 1.632625 20.33394538
      O 3.41086356 3.26511939 18.96110356
      O 6.82186356 3.26511939 18.23250625
      Sn 3.41086356 1.632625 20.23096467
      Sn 6.82186356 3.26511939 20.37998795
      O 4.68084708 1.632625 23.84407627
      O 2.14088004 1.632625 23.84407627
      O 6.82186356 3.26511939 22.45717565
      O 3.41086356 3.26511939 21.56444185
      Sn 0.0 1.632625 23.92842907
      Sn 3.41086356 3.26511939 23.57590466
      O 6.82186356 3.26511939 25.130105
      O 4.68016488 4.89774439 9.92340398
      O 2.14156224 4.89774439 9.92340398
      O 0.0 6.53036939 8.70696631
      Sn 6.82186356 4.89774439 9.89985549
      Sn 3.41086356 6.53036939 10.19368441
      O 1.33683912 4.89774439 13.5034774
      O 5.48502444 4.89774439 13.5034774
      O 3.41086356 6.53036939 12.20620163
      O 6.82186356 6.53036939 11.37602949
      Sn 3.41086356 4.89774439 13.54776262
      Sn 6.82186356 6.53036939 13.44583632
      O 4.71795876 4.89774439 16.91660257
      O 2.1039048 4.89774439 16.91660257
      O 6.82186356 6.53036939 15.56590336
      O 3.41086356 6.53036939 14.81727226
      Sn 0.0 4.89774439 16.90430112
      Sn 3.41086356 6.53036939 16.89235114
      O 1.33451964 4.89774439 20.33394538
      O 5.48734392 4.89774439 20.33394538
      O 3.41086356 6.53036939 18.96110356
      O 6.82186356 6.53036939 18.23250625
      Sn 3.41086356 4.89774439 20.23096467
      Sn 6.82186356 6.53036939 20.37998795
      O 4.68084708 4.89774439 23.84407627
      O 2.14088004 4.89774439 23.84407627
      O 6.82186356 6.53036939 22.45717565
      O 3.41086356 6.53036939 21.56444185
      Sn 0.0 4.89774439 23.92842907
      Sn 3.41086356 6.53036939 23.57590466
      O 6.82186356 6.53036939 25.130105
      O 4.68016488 8.16286378 9.92340398
      O 2.14156224 8.16286378 9.92340398
      O 0.0 9.79548878 8.70696631
      Sn 6.82186356 8.16286378 9.89985549
      Sn 3.41086356 9.79548878 10.19368441
      O 1.33683912 8.16286378 13.5034774
      O 5.48502444 8.16286378 13.5034774
      O 3.41086356 9.79548878 12.20620163
      O 6.82186356 9.79548878 11.37602949
      Sn 3.41086356 8.16286378 13.54776262
      Sn 6.82172712 9.79548878 13.44583632
      O 4.71795876 8.16286378 16.91660257
      O 2.1039048 8.16286378 16.91660257
      O 6.82186356 9.79548878 15.56590336
      O 3.41086356 9.79548878 14.81727226
      Sn 0.0 8.16286378 16.90430112
      Sn 3.41086356 9.79548878 16.89235114
      O 1.33451964 8.16286378 20.33394538
      O 5.48734392 8.16286378 20.33394538
      O 3.41086356 9.79548878 18.96110356
      O 6.82186356 9.79548878 18.23250625
      Sn 3.41086356 8.16286378 20.23096467
      Sn 6.82186356 9.79548878 20.37998795
      O 4.68084708 8.16286378 23.84407627
      O 2.14088004 8.16286378 23.84407627
      O 6.82186356 9.79548878 22.45717565
      O 3.41086356 9.79548878 21.56444185
      Sn 0.0 8.16286378 23.92842907
      Sn 3.41086356 9.79548878 23.57590466
      O 6.82186356 9.79548878 25.130105
      O 4.68016488 11.42811378 9.92340398
      O 2.14156224 11.42811378 9.92340398
      O 0.0 13.06060817 8.70696631
      Sn 6.82186356 11.42811378 9.89985549
      Sn 3.41086356 13.06060817 10.19368441
      O 1.33683912 11.42811378 13.5034774
      O 5.48502444 11.42811378 13.5034774
      O 3.41086356 13.06060817 12.20620163
      O 6.82186356 13.06060817 11.37602949
      Sn 3.41086356 11.42811378 13.54776262
      Sn 6.82186356 13.06060817 13.44583632
      O 4.71795876 11.42811378 16.91660257
      O 2.1039048 11.42811378 16.91660257
      O 6.82186356 13.06060817 15.56590336
      O 3.41086356 13.06060817 14.81727226
      Sn 0.0 11.42811378 16.90430112
      Sn 3.41086356 13.06060817 16.89235114
      O 1.33451964 11.42811378 20.33394538
      O 5.48734392 11.42811378 20.33394538
      O 3.41086356 13.06060817 18.96110356
      O 6.82186356 13.06060817 18.23250625
      Sn 3.41086356 11.42811378 20.23096467
      Sn 6.82186356 13.06060817 20.37998795
      O 4.68084708 11.42811378 23.84407627
      O 2.14088004 11.42811378 23.84407627
      O 6.82186356 13.06060817 22.45717565
      O 3.41086356 13.06060817 21.56444185
      Sn 0.0 11.42811378 23.92878054
      Sn 3.41086356 13.06060817 23.57590466
      O 6.82186356 13.06060817 25.130105
      O 11.50202844 1.632625 9.92340398
      O 8.9634258 1.632625 9.92340398
      O 6.82186356 3.26511939 8.70696631
      Sn 13.64359068 1.632625 9.89985549
      Sn 10.23272712 3.26511939 10.19368441
      O 8.15870268 1.632625 13.5034774
      O 12.306888 1.632625 13.5034774
      O 10.23272712 3.26511939 12.20620163
      O 13.64359068 3.26511939 11.37602949
      Sn 10.23272712 1.632625 13.54776262
      Sn 13.64372712 3.26511939 13.44583632
      O 11.53982232 1.632625 16.91660257
      O 8.92563192 1.632625 16.91660257
      O 13.64359068 3.26511939 15.56590336
      O 10.23272712 3.26511939 14.81727226
      Sn 6.82186356 1.632625 16.90430112
      Sn 10.23272712 3.26511939 16.89235114
      O 8.1563832 1.632625 20.33394538
      O 12.30907104 1.632625 20.33394538
      O 10.23272712 3.26511939 18.96110356
      O 13.64359068 3.26511939 18.23250625
      Sn 10.23272712 1.632625 20.23096467
      Sn 13.64359068 3.26511939 20.37998795
      O 11.50271064 1.632625 23.84407627
      O 8.9627436 1.632625 23.84407627
      O 13.64359068 3.26511939 22.45717565
      O 10.23272712 3.26511939 21.56444185
      Sn 6.82186356 1.632625 23.92842907
      Sn 10.23272712 3.26511939 23.57590466
      O 13.64359068 3.26511939 25.130105
      O 11.50202844 4.89774439 9.92340398
      O 8.9634258 4.89774439 9.92340398
      O 6.82186356 6.53036939 8.70696631
      Sn 13.64359068 4.89774439 9.89985549
      Sn 10.23272712 6.53036939 10.19368441
      O 8.15870268 4.89774439 13.5034774
      O 12.30675156 4.89774439 13.5034774
      O 10.23272712 6.53036939 12.20620163
      O 13.64359068 6.53036939 11.37602949
      Sn 10.23272712 4.89774439 13.54776262
      Sn 13.64359068 6.53036939 13.44583632
      O 11.53982232 4.89774439 16.91660257
      O 8.92563192 4.89774439 16.91660257
      O 13.64359068 6.53036939 15.56590336
      O 10.23272712 6.53036939 14.81727226
      Sn 6.82186356 4.89774439 16.90430112
      Sn 10.23272712 6.53036939 16.89235114
      O 8.1563832 4.89774439 20.33394538
      O 12.30907104 4.89774439 20.33394538
      O 10.23272712 6.53036939 18.96110356
      O 13.64359068 6.53036939 18.23250625
      Sn 10.23272712 4.89774439 20.23096467
      Sn 13.64359068 6.53036939 20.37998795
      O 11.50271064 4.89774439 23.84407627
      O 8.9627436 4.89774439 23.84407627
      O 13.64359068 6.53036939 22.45717565
      O 10.23272712 6.53036939 21.56444185
      Sn 6.82186356 4.89774439 23.92842907
      Sn 10.23272712 6.53036939 23.57590466
      O 13.64359068 6.53036939 25.130105
      O 11.50202844 8.16286378 9.92340398
      O 8.9634258 8.16286378 9.92340398
      O 6.82186356 9.79548878 8.70696631
      Sn 13.64359068 8.16286378 9.89985549
      Sn 10.23272712 9.79548878 10.19368441
      O 8.15856624 8.16286378 13.5034774
      O 12.30675156 8.16286378 13.5034774
      O 10.23272712 9.79548878 12.20620163
      O 13.64359068 9.79548878 11.37602949
      Sn 10.23272712 8.16286378 13.54776262
      Sn 13.64359068 9.79548878 13.44583632
      O 11.53982232 8.16286378 16.91660257
      O 8.92563192 8.16286378 16.91660257
      O 13.64359068 9.79548878 15.56590336
      O 10.23272712 9.79548878 14.81727226
      Sn 6.82186356 8.16286378 16.90430112
      Sn 10.23272712 9.79548878 16.89235114
      O 8.1563832 8.16286378 20.33394538
      O 12.30907104 8.16286378 20.33394538
      O 10.23272712 9.79548878 18.96110356
      O 13.64359068 9.79548878 18.23250625
      Sn 10.23272712 8.16286378 20.23096467
      Sn 13.64359068 9.79548878 20.37998795
      O 11.50271064 8.16286378 23.84407627
      O 8.9627436 8.16286378 23.84407627
      O 13.64359068 9.79548878 22.45717565
      O 10.23272712 9.79548878 21.56444185
      Sn 6.82186356 8.16286378 23.92842907
      Sn 10.23272712 9.79548878 23.57590466
      O 13.64359068 9.79548878 25.130105
      O 11.50202844 11.42811378 9.92340398
      O 8.9634258 11.42811378 9.92340398
      O 6.82186356 13.06060817 8.70696631
      Sn 13.64359068 11.42811378 9.89985549
      Sn 10.23272712 13.06060817 10.19368441
      O 8.15870268 11.42811378 13.5034774
      O 12.30675156 11.42811378 13.5034774
      O 10.23272712 13.06060817 12.20620163
      O 13.64359068 13.06060817 11.37602949
      Sn 10.23272712 11.42811378 13.54776262
      Sn 13.64359068 13.06060817 13.44583632
      O 11.53982232 11.42811378 16.91660257
      O 8.92563192 11.42811378 16.91660257
      O 13.64359068 13.06060817 15.56590336
      O 10.23272712 13.06060817 14.81727226
      Sn 6.82186356 11.42811378 16.90430112
      Sn 10.23272712 13.06060817 16.89235114
      O 8.1563832 11.42811378 20.33394538
      O 12.30907104 11.42811378 20.33394538
      O 10.23272712 13.06060817 18.96110356
      O 13.64359068 13.06060817 18.23250625
      Sn 10.23272712 11.42811378 20.23096467
      Sn 13.64359068 13.06060817 20.37998795
      O 11.50271064 11.42811378 23.84407627
      O 8.9627436 11.42811378 23.84407627
      O 13.64359068 13.06060817 22.45717565
      O 10.23272712 13.06060817 21.56444185
      Sn 6.82186356 11.42811378 23.92878054
      Sn 10.23272712 13.06060817 23.57590466
      O 13.64359068 13.06060817 25.130105
      O 10.23272712 6.53036939 25.57590466
      H 9.27138151 6.64840672 25.57590466
      H 10.35076445 5.56902378 25.57590466
      O 10.23272712 6.53036939 8.19368441
      H 10.11468979 5.56902378 8.19368441
      H 11.19407273 6.64840672 8.19368441
    &END COORD
    &KIND H
      POTENTIAL GTH-PBE-q1
      BASIS_SET DZVP-MOLOPT-SR-GTH
    &END KIND
    &KIND O
      POTENTIAL GTH-PBE-q6
      BASIS_SET DZVP-MOLOPT-SR-GTH
    &END KIND
    &KIND Sn
      POTENTIAL GTH-PBE-q4
      BASIS_SET DZVP-MOLOPT-SR-GTH
    &END KIND
  &END SUBSYS
  &PRINT
    &FORCES ON
    &END FORCES
    &STRESS_TENSOR ON
    &END STRESS_TENSOR
  &END PRINT
&END FORCE_EVAL
