&FORCE_EVAL
  METHOD Quickstep
  &DFT
    BASIS_SET_FILE_NAME BASIS_MOLOPT
    POTENTIAL_FILE_NAME GTH_POTENTIALS
    &MGRID
      CUTOFF 400
      REL_CUTOFF 60
    &END MGRID
    &QS
      EPS_DEFAULT 1.0E-13
      EXTRAPOLATION ASPC
      EXTRAPOLATION_ORDER 2
    &END QS
    &SCF
      EPS_SCF 1.0E-6
      MAX_SCF 50
      &OUTER_SCF
        EPS_SCF 1.0E-6
        MAX_SCF 10
      &END
      &OT
        MINIMIZER DIIS 
        PRECONDITIONER FULL_SINGLE_INVERSE
        ENERGY_GAP 0.1
      &END
    &END SCF
    &XC
      &XC_FUNCTIONAL PBE
      &END XC_FUNCTIONAL
      &vdW_POTENTIAL
        DISPERSION_FUNCTIONAL PAIR_POTENTIAL
        &PAIR_POTENTIAL
          TYPE DFTD3
          PARAMETER_FILE_NAME dftd3.dat
          REFERENCE_FUNCTIONAL PBE
        &END PAIR_POTENTIAL
      &END vdW_POTENTIAL

    &END XC
    &PRINT
      &V_HARTREE_CUBE
        ADD_LAST NUMERIC
        COMMON_ITERATION_LEVELS 0
        APPEND .TRUE.
        &EACH
          MD 1
          GEO_OPT 0
        &END EACH
      &END V_HARTREE_CUBE
      &PDOS
        ADD_LAST NUMERIC
        COMMON_ITERATION_LEVELS 0
        COMPONENTS 
        APPEND .TRUE.
        NLUMO -1
        &EACH
          MD 1
          GEO_OPT 0
        &END EACH
      &END PDOS
    &END PRINT
  &END DFT


  &SUBSYS
    &CELL
      ABC [angstrom] 12.745532 13.399023 40.985034
      ALPHA_BETA_GAMMA  90 90 90
    &END CELL
    &COORD
@INCLUDE init.xyz 
    &END COORD
    &KIND H
      BASIS_SET DZVP-MOLOPT-SR-GTH            
      POTENTIAL GTH-PBE-q1
    &END KIND                    
    &KIND O
      BASIS_SET DZVP-MOLOPT-SR-GTH 
      POTENTIAL GTH-PBE-q6 
    &END KIND
    &KIND Sn 
      BASIS_SET DZVP-MOLOPT-SR-GTH 
      POTENTIAL GTH-PBE-q4
    &END KIND
  &END SUBSYS
&END FORCE_EVAL

&GLOBAL
  PROJECT SnO2
  RUN_TYPE  MD
  PRINT_LEVEL medium
  WALLTIME 86000 
&END GLOBAL

&MOTION
  &MD
    ENSEMBLE NVT
    STEPS 60000
    TIMESTEP 0.5
    TEMPERATURE 330.0
  &END MD

  &PRINT
    &TRAJECTORY
      &EACH
        MD 1
      &END EACH
    &END TRAJECTORY
    &VELOCITIES
      &EACH
        MD 1
      &END EACH
    &END VELOCITIES
    &FORCES
      &EACH
        MD 1
      &END EACH
    &END FORCES
    &RESTART_HISTORY
      &EACH
        MD 1000
      &END EACH
    &END RESTART_HISTORY
    &RESTART
      BACKUP_COPIES 3
      &EACH
        MD 1
      &END EACH
    &END RESTART
    #   &STRESS
    #   &END STRESS
  &END PRINT

&END MOTION

