&GLOBAL
  PRINT_LEVEL medium
  PROJECT_NAME SnO2
  #  RUN_TYPE CELL_OPT
  WALLTIME 86000
&END GLOBAL
&FORCE_EVAL
  METHOD Quickstep
  STRESS_TENSOR ANALYTICAL
  &DFT
    POTENTIAL_FILE_NAME GTH_POTENTIALS
    BASIS_SET_FILE_NAME BASIS_MOLOPT
    &SCF
      MAX_SCF 50
      EPS_SCF 1.0E-6
      &OUTER_SCF
        EPS_SCF 1.0E-6
        MAX_SCF 10
      &END
      &OT
        MINIMIZER DIIS
        PRECONDITIONER FULL_SINGLE_INVERSE
        ENERGY_GAP 0.1
      &END OT
    &END SCF
    &QS
      EPS_DEFAULT 1.0E-13
      EXTRAPOLATION ASPC
      EXTRAPOLATION_ORDER 2
    &END QS
    &MGRID
      NGRIDS 4
      CUTOFF 600
      REL_CUTOFF 60
    &END MGRID
    &XC
      &XC_FUNCTIONAL PBE
      &END XC_FUNCTIONAL
      &VDW_POTENTIAL
        POTENTIAL_TYPE PAIR_POTENTIAL
        &PAIR_POTENTIAL
          TYPE DFTD3
          PARAMETER_FILE_NAME dftd3.dat
          REFERENCE_FUNCTIONAL PBE
        &END PAIR_POTENTIAL
      &END VDW_POTENTIAL
    &END XC
  &END DFT
  &SUBSYS
    &CELL
      ABC [angstrom] 18.952 18.952 19.119
      ALPHA_BETA_GAMMA 90 90 90
    &END CELL
    &COORD
      Sn       2.36900000       2.36900000       1.59325000
      Sn       0.00000000       0.00000000       0.00000000
      O        0.91396020       3.82403980       1.59325000
      O        3.82403980       0.91396020       1.59325000
      O        1.45503980       1.45503980       0.00000000
      O        3.28296020       3.28296020       0.00000000
      Sn       2.36900000       2.36900000       4.77975000
      Sn       0.00000000       0.00000000       3.18650000
      O        0.91396020       3.82403980       4.77975000
      O        3.82403980       0.91396020       4.77975000
      O        1.45503980       1.45503980       3.18650000
      O        3.28296020       3.28296020       3.18650000
      Sn       2.36900000       2.36900000       7.96625000
      Sn       0.00000000       0.00000000       6.37300000
      O        0.91396020       3.82403980       7.96625000
      O        3.82403980       0.91396020       7.96625000
      O        1.45503980       1.45503980       6.37300000
      O        3.28296020       3.28296020       6.37300000
      Sn       2.36900000       2.36900000      11.15275000
      Sn       0.00000000       0.00000000       9.55950000
      O        0.91396020       3.82403980      11.15275000
      O        3.82403980       0.91396020      11.15275000
      O        1.45503980       1.45503980       9.55950000
      O        3.28296020       3.28296020       9.55950000
      Sn       2.36900000       2.36900000      14.33925000
      Sn       0.00000000       0.00000000      12.74600000
      O        0.91396020       3.82403980      14.33925000
      O        3.82403980       0.91396020      14.33925000
      O        1.45503980       1.45503980      12.74600000
      O        3.28296020       3.28296020      12.74600000
      Sn       2.36900000       2.36900000      17.52575000
      Sn       0.00000000       0.00000000      15.93250000
      O        0.91396020       3.82403980      17.52575000
      O        3.82403980       0.91396020      17.52575000
      O        1.45503980       1.45503980      15.93250000
      O        3.28296020       3.28296020      15.93250000
      Sn       2.36900000       7.10700000       1.59325000
      Sn       0.00000000       4.73800000       0.00000000
      O        0.91396020       8.56203980       1.59325000
      O        3.82403980       5.65196020       1.59325000
      O        1.45503980       6.19303980       0.00000000
      O        3.28296020       8.02096020       0.00000000
      Sn       2.36900000       7.10700000       4.77975000
      Sn       0.00000000       4.73800000       3.18650000
      O        0.91396020       8.56203980       4.77975000
      O        3.82403980       5.65196020       4.77975000
      O        1.45503980       6.19303980       3.18650000
      O        3.28296020       8.02096020       3.18650000
      Sn       2.36900000       7.10700000       7.96625000
      Sn       0.00000000       4.73800000       6.37300000
      O        0.91396020       8.56203980       7.96625000
      O        3.82403980       5.65196020       7.96625000
      O        1.45503980       6.19303980       6.37300000
      O        3.28296020       8.02096020       6.37300000
      Sn       2.36900000       7.10700000      11.15275000
      Sn       0.00000000       4.73800000       9.55950000
      O        0.91396020       8.56203980      11.15275000
      O        3.82403980       5.65196020      11.15275000
      O        1.45503980       6.19303980       9.55950000
      O        3.28296020       8.02096020       9.55950000
      Sn       2.36900000       7.10700000      14.33925000
      Sn       0.00000000       4.73800000      12.74600000
      O        0.91396020       8.56203980      14.33925000
      O        3.82403980       5.65196020      14.33925000
      O        1.45503980       6.19303980      12.74600000
      O        3.28296020       8.02096020      12.74600000
      Sn       2.36900000       7.10700000      17.52575000
      Sn       0.00000000       4.73800000      15.93250000
      O        0.91396020       8.56203980      17.52575000
      O        3.82403980       5.65196020      17.52575000
      O        1.45503980       6.19303980      15.93250000
      O        3.28296020       8.02096020      15.93250000
      Sn       2.36900000      11.84500000       1.59325000
      Sn       0.00000000       9.47600000       0.00000000
      O        0.91396020      13.30003980       1.59325000
      O        3.82403980      10.38996020       1.59325000
      O        1.45503980      10.93103980       0.00000000
      O        3.28296020      12.75896020       0.00000000
      Sn       2.36900000      11.84500000       4.77975000
      Sn       0.00000000       9.47600000       3.18650000
      O        0.91396020      13.30003980       4.77975000
      O        3.82403980      10.38996020       4.77975000
      O        1.45503980      10.93103980       3.18650000
      O        3.28296020      12.75896020       3.18650000
      Sn       2.36900000      11.84500000       7.96625000
      Sn       0.00000000       9.47600000       6.37300000
      O        0.91396020      13.30003980       7.96625000
      O        3.82403980      10.38996020       7.96625000
      O        1.45503980      10.93103980       6.37300000
      O        3.28296020      12.75896020       6.37300000
      Sn       2.36900000      11.84500000      11.15275000
      Sn       0.00000000       9.47600000       9.55950000
      O        0.91396020      13.30003980      11.15275000
      O        3.82403980      10.38996020      11.15275000
      O        1.45503980      10.93103980       9.55950000
      O        3.28296020      12.75896020       9.55950000
      Sn       2.36900000      11.84500000      14.33925000
      Sn       0.00000000       9.47600000      12.74600000
      O        0.91396020      13.30003980      14.33925000
      O        3.82403980      10.38996020      14.33925000
      O        1.45503980      10.93103980      12.74600000
      O        3.28296020      12.75896020      12.74600000
      Sn       2.36900000      11.84500000      17.52575000
      Sn       0.00000000       9.47600000      15.93250000
      O        0.91396020      13.30003980      17.52575000
      O        3.82403980      10.38996020      17.52575000
      O        1.45503980      10.93103980      15.93250000
      O        3.28296020      12.75896020      15.93250000
      Sn       2.36900000      16.58300000       1.59325000
      Sn       0.00000000      14.21400000       0.00000000
      O        0.91396020      18.03803980       1.59325000
      O        3.82403980      15.12796020       1.59325000
      O        1.45503980      15.66903980       0.00000000
      O        3.28296020      17.49696020       0.00000000
      Sn       2.36900000      16.58300000       4.77975000
      Sn       0.00000000      14.21400000       3.18650000
      O        0.91396020      18.03803980       4.77975000
      O        3.82403980      15.12796020       4.77975000
      O        1.45503980      15.66903980       3.18650000
      O        3.28296020      17.49696020       3.18650000
      Sn       2.36900000      16.58300000       7.96625000
      Sn       0.00000000      14.21400000       6.37300000
      O        0.91396020      18.03803980       7.96625000
      O        3.82403980      15.12796020       7.96625000
      O        1.45503980      15.66903980       6.37300000
      O        3.28296020      17.49696020       6.37300000
      Sn       2.36900000      16.58300000      11.15275000
      Sn       0.00000000      14.21400000       9.55950000
      O        0.91396020      18.03803980      11.15275000
      O        3.82403980      15.12796020      11.15275000
      O        1.45503980      15.66903980       9.55950000
      O        3.28296020      17.49696020       9.55950000
      Sn       2.36900000      16.58300000      14.33925000
      Sn       0.00000000      14.21400000      12.74600000
      O        0.91396020      18.03803980      14.33925000
      O        3.82403980      15.12796020      14.33925000
      O        1.45503980      15.66903980      12.74600000
      O        3.28296020      17.49696020      12.74600000
      Sn       2.36900000      16.58300000      17.52575000
      Sn       0.00000000      14.21400000      15.93250000
      O        0.91396020      18.03803980      17.52575000
      O        3.82403980      15.12796020      17.52575000
      O        1.45503980      15.66903980      15.93250000
      O        3.28296020      17.49696020      15.93250000
      Sn       7.10700000       2.36900000       1.59325000
      Sn       4.73800000       0.00000000       0.00000000
      O        5.65196020       3.82403980       1.59325000
      O        8.56203980       0.91396020       1.59325000
      O        6.19303980       1.45503980       0.00000000
      O        8.02096020       3.28296020       0.00000000
      Sn       7.10700000       2.36900000       4.77975000
      Sn       4.73800000       0.00000000       3.18650000
      O        5.65196020       3.82403980       4.77975000
      O        8.56203980       0.91396020       4.77975000
      O        6.19303980       1.45503980       3.18650000
      O        8.02096020       3.28296020       3.18650000
      Sn       7.10700000       2.36900000       7.96625000
      Sn       4.73800000       0.00000000       6.37300000
      O        5.65196020       3.82403980       7.96625000
      O        8.56203980       0.91396020       7.96625000
      O        6.19303980       1.45503980       6.37300000
      O        8.02096020       3.28296020       6.37300000
      Sn       7.10700000       2.36900000      11.15275000
      Sn       4.73800000       0.00000000       9.55950000
      O        5.65196020       3.82403980      11.15275000
      O        8.56203980       0.91396020      11.15275000
      O        6.19303980       1.45503980       9.55950000
      O        8.02096020       3.28296020       9.55950000
      Sn       7.10700000       2.36900000      14.33925000
      Sn       4.73800000       0.00000000      12.74600000
      O        5.65196020       3.82403980      14.33925000
      O        8.56203980       0.91396020      14.33925000
      O        6.19303980       1.45503980      12.74600000
      O        8.02096020       3.28296020      12.74600000
      Sn       7.10700000       2.36900000      17.52575000
      Sn       4.73800000       0.00000000      15.93250000
      O        5.65196020       3.82403980      17.52575000
      O        8.56203980       0.91396020      17.52575000
      O        6.19303980       1.45503980      15.93250000
      O        8.02096020       3.28296020      15.93250000
      Sn       7.10700000       7.10700000       1.59325000
      Sn       4.73800000       4.73800000       0.00000000
      O        5.65196020       8.56203980       1.59325000
      O        8.56203980       5.65196020       1.59325000
      O        6.19303980       6.19303980       0.00000000
      O        8.02096020       8.02096020       0.00000000
      Sn       7.10700000       7.10700000       4.77975000
      Sn       4.73800000       4.73800000       3.18650000
      O        5.65196020       8.56203980       4.77975000
      O        8.56203980       5.65196020       4.77975000
      O        6.19303980       6.19303980       3.18650000
      O        8.02096020       8.02096020       3.18650000
      Sn       7.10700000       7.10700000       7.96625000
      Sn       4.73800000       4.73800000       6.37300000
      O        5.65196020       8.56203980       7.96625000
      O        8.56203980       5.65196020       7.96625000
      O        6.19303980       6.19303980       6.37300000
      O        8.02096020       8.02096020       6.37300000
      Sn       7.10700000       7.10700000      11.15275000
      Sn       4.73800000       4.73800000       9.55950000
      O        5.65196020       8.56203980      11.15275000
      O        8.56203980       5.65196020      11.15275000
      O        6.19303980       6.19303980       9.55950000
      O        8.02096020       8.02096020       9.55950000
      Sn       7.10700000       7.10700000      14.33925000
      Sn       4.73800000       4.73800000      12.74600000
      O        5.65196020       8.56203980      14.33925000
      O        8.56203980       5.65196020      14.33925000
      O        6.19303980       6.19303980      12.74600000
      O        8.02096020       8.02096020      12.74600000
      Sn       7.10700000       7.10700000      17.52575000
      Sn       4.73800000       4.73800000      15.93250000
      O        5.65196020       8.56203980      17.52575000
      O        8.56203980       5.65196020      17.52575000
      O        6.19303980       6.19303980      15.93250000
      O        8.02096020       8.02096020      15.93250000
      Sn       7.10700000      11.84500000       1.59325000
      Sn       4.73800000       9.47600000       0.00000000
      O        5.65196020      13.30003980       1.59325000
      O        8.56203980      10.38996020       1.59325000
      O        6.19303980      10.93103980       0.00000000
      O        8.02096020      12.75896020       0.00000000
      Sn       7.10700000      11.84500000       4.77975000
      Sn       4.73800000       9.47600000       3.18650000
      O        5.65196020      13.30003980       4.77975000
      O        8.56203980      10.38996020       4.77975000
      O        6.19303980      10.93103980       3.18650000
      O        8.02096020      12.75896020       3.18650000
      Sn       7.10700000      11.84500000       7.96625000
      Sn       4.73800000       9.47600000       6.37300000
      O        5.65196020      13.30003980       7.96625000
      O        8.56203980      10.38996020       7.96625000
      O        6.19303980      10.93103980       6.37300000
      O        8.02096020      12.75896020       6.37300000
      Sn       7.10700000      11.84500000      11.15275000
      Sn       4.73800000       9.47600000       9.55950000
      O        5.65196020      13.30003980      11.15275000
      O        8.56203980      10.38996020      11.15275000
      O        6.19303980      10.93103980       9.55950000
      O        8.02096020      12.75896020       9.55950000
      Sn       7.10700000      11.84500000      14.33925000
      Sn       4.73800000       9.47600000      12.74600000
      O        5.65196020      13.30003980      14.33925000
      O        8.56203980      10.38996020      14.33925000
      O        6.19303980      10.93103980      12.74600000
      O        8.02096020      12.75896020      12.74600000
      Sn       7.10700000      11.84500000      17.52575000
      Sn       4.73800000       9.47600000      15.93250000
      O        5.65196020      13.30003980      17.52575000
      O        8.56203980      10.38996020      17.52575000
      O        6.19303980      10.93103980      15.93250000
      O        8.02096020      12.75896020      15.93250000
      Sn       7.10700000      16.58300000       1.59325000
      Sn       4.73800000      14.21400000       0.00000000
      O        5.65196020      18.03803980       1.59325000
      O        8.56203980      15.12796020       1.59325000
      O        6.19303980      15.66903980       0.00000000
      O        8.02096020      17.49696020       0.00000000
      Sn       7.10700000      16.58300000       4.77975000
      Sn       4.73800000      14.21400000       3.18650000
      O        5.65196020      18.03803980       4.77975000
      O        8.56203980      15.12796020       4.77975000
      O        6.19303980      15.66903980       3.18650000
      O        8.02096020      17.49696020       3.18650000
      Sn       7.10700000      16.58300000       7.96625000
      Sn       4.73800000      14.21400000       6.37300000
      O        5.65196020      18.03803980       7.96625000
      O        8.56203980      15.12796020       7.96625000
      O        6.19303980      15.66903980       6.37300000
      O        8.02096020      17.49696020       6.37300000
      Sn       7.10700000      16.58300000      11.15275000
      Sn       4.73800000      14.21400000       9.55950000
      O        5.65196020      18.03803980      11.15275000
      O        8.56203980      15.12796020      11.15275000
      O        6.19303980      15.66903980       9.55950000
      O        8.02096020      17.49696020       9.55950000
      Sn       7.10700000      16.58300000      14.33925000
      Sn       4.73800000      14.21400000      12.74600000
      O        5.65196020      18.03803980      14.33925000
      O        8.56203980      15.12796020      14.33925000
      O        6.19303980      15.66903980      12.74600000
      O        8.02096020      17.49696020      12.74600000
      Sn       7.10700000      16.58300000      17.52575000
      Sn       4.73800000      14.21400000      15.93250000
      O        5.65196020      18.03803980      17.52575000
      O        8.56203980      15.12796020      17.52575000
      O        6.19303980      15.66903980      15.93250000
      O        8.02096020      17.49696020      15.93250000
      Sn      11.84500000       2.36900000       1.59325000
      Sn       9.47600000       0.00000000       0.00000000
      O       10.38996020       3.82403980       1.59325000
      O       13.30003980       0.91396020       1.59325000
      O       10.93103980       1.45503980       0.00000000
      O       12.75896020       3.28296020       0.00000000
      Sn      11.84500000       2.36900000       4.77975000
      Sn       9.47600000       0.00000000       3.18650000
      O       10.38996020       3.82403980       4.77975000
      O       13.30003980       0.91396020       4.77975000
      O       10.93103980       1.45503980       3.18650000
      O       12.75896020       3.28296020       3.18650000
      Sn      11.84500000       2.36900000       7.96625000
      Sn       9.47600000       0.00000000       6.37300000
      O       10.38996020       3.82403980       7.96625000
      O       13.30003980       0.91396020       7.96625000
      O       10.93103980       1.45503980       6.37300000
      O       12.75896020       3.28296020       6.37300000
      Sn      11.84500000       2.36900000      11.15275000
      Sn       9.47600000       0.00000000       9.55950000
      O       10.38996020       3.82403980      11.15275000
      O       13.30003980       0.91396020      11.15275000
      O       10.93103980       1.45503980       9.55950000
      O       12.75896020       3.28296020       9.55950000
      Sn      11.84500000       2.36900000      14.33925000
      Sn       9.47600000       0.00000000      12.74600000
      O       10.38996020       3.82403980      14.33925000
      O       13.30003980       0.91396020      14.33925000
      O       10.93103980       1.45503980      12.74600000
      O       12.75896020       3.28296020      12.74600000
      Sn      11.84500000       2.36900000      17.52575000
      Sn       9.47600000       0.00000000      15.93250000
      O       10.38996020       3.82403980      17.52575000
      O       13.30003980       0.91396020      17.52575000
      O       10.93103980       1.45503980      15.93250000
      O       12.75896020       3.28296020      15.93250000
      Sn      11.84500000       7.10700000       1.59325000
      Sn       9.47600000       4.73800000       0.00000000
      O       10.38996020       8.56203980       1.59325000
      O       13.30003980       5.65196020       1.59325000
      O       10.93103980       6.19303980       0.00000000
      O       12.75896020       8.02096020       0.00000000
      Sn      11.84500000       7.10700000       4.77975000
      Sn       9.47600000       4.73800000       3.18650000
      O       10.38996020       8.56203980       4.77975000
      O       13.30003980       5.65196020       4.77975000
      O       10.93103980       6.19303980       3.18650000
      O       12.75896020       8.02096020       3.18650000
      Sn      11.84500000       7.10700000       7.96625000
      Sn       9.47600000       4.73800000       6.37300000
      O       10.38996020       8.56203980       7.96625000
      O       13.30003980       5.65196020       7.96625000
      O       10.93103980       6.19303980       6.37300000
      O       12.75896020       8.02096020       6.37300000
      Sn      11.84500000       7.10700000      11.15275000
      Sn       9.47600000       4.73800000       9.55950000
      O       10.38996020       8.56203980      11.15275000
      O       13.30003980       5.65196020      11.15275000
      O       10.93103980       6.19303980       9.55950000
      O       12.75896020       8.02096020       9.55950000
      Sn      11.84500000       7.10700000      14.33925000
      Sn       9.47600000       4.73800000      12.74600000
      O       10.38996020       8.56203980      14.33925000
      O       13.30003980       5.65196020      14.33925000
      O       10.93103980       6.19303980      12.74600000
      O       12.75896020       8.02096020      12.74600000
      Sn      11.84500000       7.10700000      17.52575000
      Sn       9.47600000       4.73800000      15.93250000
      O       10.38996020       8.56203980      17.52575000
      O       13.30003980       5.65196020      17.52575000
      O       10.93103980       6.19303980      15.93250000
      O       12.75896020       8.02096020      15.93250000
      Sn      11.84500000      11.84500000       1.59325000
      Sn       9.47600000       9.47600000       0.00000000
      O       10.38996020      13.30003980       1.59325000
      O       13.30003980      10.38996020       1.59325000
      O       10.93103980      10.93103980       0.00000000
      O       12.75896020      12.75896020       0.00000000
      Sn      11.84500000      11.84500000       4.77975000
      Sn       9.47600000       9.47600000       3.18650000
      O       10.38996020      13.30003980       4.77975000
      O       13.30003980      10.38996020       4.77975000
      O       10.93103980      10.93103980       3.18650000
      O       12.75896020      12.75896020       3.18650000
      Sn      11.84500000      11.84500000       7.96625000
      Sn       9.47600000       9.47600000       6.37300000
      O       10.38996020      13.30003980       7.96625000
      O       13.30003980      10.38996020       7.96625000
      O       10.93103980      10.93103980       6.37300000
      O       12.75896020      12.75896020       6.37300000
      Sn      11.84500000      11.84500000      11.15275000
      Sn       9.47600000       9.47600000       9.55950000
      O       10.38996020      13.30003980      11.15275000
      O       13.30003980      10.38996020      11.15275000
      O       10.93103980      10.93103980       9.55950000
      O       12.75896020      12.75896020       9.55950000
      Sn      11.84500000      11.84500000      14.33925000
      Sn       9.47600000       9.47600000      12.74600000
      O       10.38996020      13.30003980      14.33925000
      O       13.30003980      10.38996020      14.33925000
      O       10.93103980      10.93103980      12.74600000
      O       12.75896020      12.75896020      12.74600000
      Sn      11.84500000      11.84500000      17.52575000
      Sn       9.47600000       9.47600000      15.93250000
      O       10.38996020      13.30003980      17.52575000
      O       13.30003980      10.38996020      17.52575000
      O       10.93103980      10.93103980      15.93250000
      O       12.75896020      12.75896020      15.93250000
      Sn      11.84500000      16.58300000       1.59325000
      Sn       9.47600000      14.21400000       0.00000000
      O       10.38996020      18.03803980       1.59325000
      O       13.30003980      15.12796020       1.59325000
      O       10.93103980      15.66903980       0.00000000
      O       12.75896020      17.49696020       0.00000000
      Sn      11.84500000      16.58300000       4.77975000
      Sn       9.47600000      14.21400000       3.18650000
      O       10.38996020      18.03803980       4.77975000
      O       13.30003980      15.12796020       4.77975000
      O       10.93103980      15.66903980       3.18650000
      O       12.75896020      17.49696020       3.18650000
      Sn      11.84500000      16.58300000       7.96625000
      Sn       9.47600000      14.21400000       6.37300000
      O       10.38996020      18.03803980       7.96625000
      O       13.30003980      15.12796020       7.96625000
      O       10.93103980      15.66903980       6.37300000
      O       12.75896020      17.49696020       6.37300000
      Sn      11.84500000      16.58300000      11.15275000
      Sn       9.47600000      14.21400000       9.55950000
      O       10.38996020      18.03803980      11.15275000
      O       13.30003980      15.12796020      11.15275000
      O       10.93103980      15.66903980       9.55950000
      O       12.75896020      17.49696020       9.55950000
      Sn      11.84500000      16.58300000      14.33925000
      Sn       9.47600000      14.21400000      12.74600000
      O       10.38996020      18.03803980      14.33925000
      O       13.30003980      15.12796020      14.33925000
      O       10.93103980      15.66903980      12.74600000
      O       12.75896020      17.49696020      12.74600000
      Sn      11.84500000      16.58300000      17.52575000
      Sn       9.47600000      14.21400000      15.93250000
      O       10.38996020      18.03803980      17.52575000
      O       13.30003980      15.12796020      17.52575000
      O       10.93103980      15.66903980      15.93250000
      O       12.75896020      17.49696020      15.93250000
      Sn      16.58300000       2.36900000       1.59325000
      Sn      14.21400000       0.00000000       0.00000000
      O       15.12796020       3.82403980       1.59325000
      O       18.03803980       0.91396020       1.59325000
      O       15.66903980       1.45503980       0.00000000
      O       17.49696020       3.28296020       0.00000000
      Sn      16.58300000       2.36900000       4.77975000
      Sn      14.21400000       0.00000000       3.18650000
      O       15.12796020       3.82403980       4.77975000
      O       18.03803980       0.91396020       4.77975000
      O       15.66903980       1.45503980       3.18650000
      O       17.49696020       3.28296020       3.18650000
      Sn      16.58300000       2.36900000       7.96625000
      Sn      14.21400000       0.00000000       6.37300000
      O       15.12796020       3.82403980       7.96625000
      O       18.03803980       0.91396020       7.96625000
      O       15.66903980       1.45503980       6.37300000
      O       17.49696020       3.28296020       6.37300000
      Sn      16.58300000       2.36900000      11.15275000
      Sn      14.21400000       0.00000000       9.55950000
      O       15.12796020       3.82403980      11.15275000
      O       18.03803980       0.91396020      11.15275000
      O       15.66903980       1.45503980       9.55950000
      O       17.49696020       3.28296020       9.55950000
      Sn      16.58300000       2.36900000      14.33925000
      Sn      14.21400000       0.00000000      12.74600000
      O       15.12796020       3.82403980      14.33925000
      O       18.03803980       0.91396020      14.33925000
      O       15.66903980       1.45503980      12.74600000
      O       17.49696020       3.28296020      12.74600000
      Sn      16.58300000       2.36900000      17.52575000
      Sn      14.21400000       0.00000000      15.93250000
      O       15.12796020       3.82403980      17.52575000
      O       18.03803980       0.91396020      17.52575000
      O       15.66903980       1.45503980      15.93250000
      O       17.49696020       3.28296020      15.93250000
      Sn      16.58300000       7.10700000       1.59325000
      Sn      14.21400000       4.73800000       0.00000000
      O       15.12796020       8.56203980       1.59325000
      O       18.03803980       5.65196020       1.59325000
      O       15.66903980       6.19303980       0.00000000
      O       17.49696020       8.02096020       0.00000000
      Sn      16.58300000       7.10700000       4.77975000
      Sn      14.21400000       4.73800000       3.18650000
      O       15.12796020       8.56203980       4.77975000
      O       18.03803980       5.65196020       4.77975000
      O       15.66903980       6.19303980       3.18650000
      O       17.49696020       8.02096020       3.18650000
      Sn      16.58300000       7.10700000       7.96625000