&GLOBAL
  PRINT_LEVEL medium
  PROJECT_NAME SnO2
  RUN_TYPE GEO_OPT
  WALLTIME 86000
&END GLOBAL
&MOTION
  &CELL_OPT
    KEEP_ANGLES .TRUE.
  &END CELL_OPT
&END MOTION
&FORCE_EVAL
  METHOD Quickstep
  STRESS_TENSOR ANALYTICAL
  &DFT
    POTENTIAL_FILE_NAME GTH_POTENTIALS
    BASIS_SET_FILE_NAME BASIS_MOLOPT
    &SCF
      MAX_SCF 50
      EPS_SCF 1.0E-6
      &OT
        MINIMIZER DIIS
        PRECONDITIONER FULL_SINGLE_INVERSE
        ENERGY_GAP 0.1
      &END OT
      &OUTER_SCF
        EPS_SCF 1.0E-6
        MAX_SCF 10
      &END OUTER_SCF
    &END SCF
    &QS
      EPS_DEFAULT 1.0E-13
      EXTRAPOLATION ASPC
      EXTRAPOLATION_ORDER 2
    &END QS
    &MGRID
      NGRIDS 4
      CUTOFF 400
      REL_CUTOFF 60
    &END MGRID
    &XC
      &XC_FUNCTIONAL PBE
      &END XC_FUNCTIONAL
      &VDW_POTENTIAL
        POTENTIAL_TYPE PAIR_POTENTIAL
        &PAIR_POTENTIAL
          TYPE DFTD3
          PARAMETER_FILE_NAME dftd3.dat
          REFERENCE_FUNCTIONAL PBE
        &END PAIR_POTENTIAL
      &END VDW_POTENTIAL
    &END XC
    &PRINT
      &V_HARTREE_CUBE
        ADD_LAST NUMERIC
        COMMON_ITERATION_LEVELS 0
        APPEND .TRUE.
        &EACH
          GEO_OPT 0
        &END EACH
      &END V_HARTREE_CUBE
      &PDOS
        ADD_LAST NUMERIC
        COMMON_ITERATION_LEVELS 0
        COMPONENTS 
        APPEND .TRUE.
        NLUMO -1
        &EACH
          GEO_OPT 0
        &END EACH
      &END PDOS
    &END PRINT
  &END DFT
  &SUBSYS
    &CELL
      A 13.643625342994437 0.0 0.0
      B 0.0 13.060666666666666 0.0
      C 0.0 0.0 35.14664518883781
      PERIODIC XYZ
    &END CELL
    &COORD
      O 4.72980149 1.63228947 10.09201118
      O 2.09201118 1.63228947 10.09201118
      O 0.0 3.26506871 8.77318425
      Sn 6.82181267 1.63228947 10.09204529
      Sn 3.41090634 3.26506871 10.09211351
      O 1.31889515 1.63228947 13.50291752
      O 5.50291752 1.63228947 13.50291752
      O 3.41090634 3.26506871 12.18409058
      O 6.82181267 3.26506871 11.41090634
      Sn 3.41090634 1.63228947 13.50295163
      Sn 6.82181267 3.26506871 13.50301985
      O 4.72980149 1.63228947 16.91382385
      O 2.09201118 1.63228947 16.91382385
      O 6.82181267 3.26506871 15.59499692
      O 3.41090634 3.26506871 14.82181267
      Sn 0.0 1.63228947 16.91385796
      Sn 3.41090634 3.26506871 16.91392618
      O 1.31889515 1.63228947 20.32473019
      O 5.50291752 1.63228947 20.32473019
      O 3.41090634 3.26506871 19.00590326
      O 6.82181267 3.26506871 18.23271901
      Sn 3.41090634 1.63228947 20.3247643
      Sn 6.82181267 3.26506871 20.32483252
      O 4.72980149 1.63228947 23.73563653
      O 2.09201118 1.63228947 23.73563653
      O 6.82181267 3.26506871 22.41680959
      O 3.41090634 3.26506871 21.64362534
      Sn 0.0 1.63228947 23.73567063
      Sn 3.41090634 3.26506871 23.73573885
      O 6.82181267 3.26506871 25.05453168
      O 4.72980149 4.89745613 10.09201118
      O 2.09201118 4.89745613 10.09201118
      O 0.0 6.53023538 8.77318425
      Sn 6.82181267 4.89745613 10.09204529
      Sn 3.41090634 6.53023538 10.09211351
      O 1.31889515 4.89745613 13.50291752
      O 5.50291752 4.89745613 13.50291752
      O 3.41090634 6.53023538 12.18409058
      O 6.82181267 6.53023538 11.41090634
      Sn 3.41090634 4.89745613 13.50295163
      Sn 6.82181267 6.53023538 13.50301985
      O 4.72980149 4.89745613 16.91382385
      O 2.09201118 4.89745613 16.91382385
      O 6.82181267 6.53023538 15.59499692
      O 3.41090634 6.53023538 14.82181267
      Sn 0.0 4.89745613 16.91385796
      Sn 3.41090634 6.53023538 16.91392618
      O 1.31889515 4.89745613 20.32473019
      O 5.50291752 4.89745613 20.32473019
      O 3.41090634 6.53023538 19.00590326
      O 6.82181267 6.53023538 18.23271901
      Sn 3.41090634 4.89745613 20.3247643
      Sn 6.82181267 6.53023538 20.32483252
      O 4.72980149 4.89745613 23.73563653
      O 2.09201118 4.89745613 23.73563653
      O 6.82181267 6.53023538 22.41680959
      O 3.41090634 6.53023538 21.64362534
      Sn 0.0 4.89745613 23.73567063
      Sn 3.41090634 6.53023538 23.73573885
      O 6.82181267 6.53023538 25.05453168
      O 4.72980149 8.1626228 10.09201118
      O 2.09201118 8.1626228 10.09201118
      O 0.0 9.79540204 8.77318425
      Sn 6.82181267 8.1626228 10.09204529
      Sn 3.41090634 9.79540204 10.09211351
      O 1.31889515 8.1626228 13.50291752
      O 5.50291752 8.1626228 13.50291752
      O 3.41090634 9.79540204 12.18409058
      O 6.82181267 9.79540204 11.41090634
      Sn 3.41090634 8.1626228 13.50295163
      Sn 6.82181267 9.79540204 13.50301985
      O 4.72980149 8.1626228 16.91382385
      O 2.09201118 8.1626228 16.91382385
      O 6.82181267 9.79540204 15.59499692
      O 3.41090634 9.79540204 14.82181267
      Sn 0.0 8.1626228 16.91385796
      Sn 3.41090634 9.79540204 16.91392618
      O 1.31889515 8.1626228 20.32473019
      O 5.50291752 8.1626228 20.32473019
      O 3.41090634 9.79540204 19.00590326
      O 6.82181267 9.79540204 18.23271901
      Sn 3.41090634 8.1626228 20.3247643
      Sn 6.82181267 9.79540204 20.32483252
      O 4.72980149 8.1626228 23.73563653
      O 2.09201118 8.1626228 23.73563653
      O 6.82181267 9.79540204 22.41680959
      O 3.41090634 9.79540204 21.64362534
      Sn 0.0 8.1626228 23.73567063
      Sn 3.41090634 9.79540204 23.73573885
      O 6.82181267 9.79540204 25.05453168
      O 4.72980149 11.42778947 10.09201118
      O 2.09201118 11.42778947 10.09201118
      O 0.0 13.06056871 8.77318425
      Sn 6.82181267 11.42778947 10.09204529
      Sn 3.41090634 13.06056871 10.09211351
      O 1.31889515 11.42778947 13.50291752
      O 5.50291752 11.42778947 13.50291752
      O 3.41090634 13.06056871 12.18409058
      O 6.82181267 13.06056871 11.41090634
      Sn 3.41090634 11.42778947 13.50295163
      Sn 6.82181267 13.06056871 13.50301985
      O 4.72980149 11.42778947 16.91382385
      O 2.09201118 11.42778947 16.91382385
      O 6.82181267 13.06056871 15.59499692
      O 3.41090634 13.06056871 14.82181267
      Sn 0.0 11.42778947 16.91385796
      Sn 3.41090634 13.06056871 16.91392618
      O 1.31889515 11.42778947 20.32473019
      O 5.50291752 11.42778947 20.32473019
      O 3.41090634 13.06056871 19.00590326
      O 6.82181267 13.06056871 18.23271901
      Sn 3.41090634 11.42778947 20.3247643
      Sn 6.82181267 13.06056871 20.32483252
      O 4.72980149 11.42778947 23.73563653
      O 2.09201118 11.42778947 23.73563653
      O 6.82181267 13.06056871 22.41680959
      O 3.41090634 13.06056871 21.64362534
      Sn 0.0 11.42778947 23.73567063
      Sn 3.41090634 13.06056871 23.73573885
      O 6.82181267 13.06056871 25.05453168
      O 11.55161416 1.63228947 10.09201118
      O 8.91382385 1.63228947 10.09201118
      O 6.82181267 3.26506871 8.77318425
      Sn 13.64362534 1.63228947 10.09204529
      Sn 10.23271901 3.26506871 10.09211351
      O 8.14070782 1.63228947 13.50291752
      O 12.32473019 1.63228947 13.50291752
      O 10.23271901 3.26506871 12.18409058
      O 13.64362534 3.26506871 11.41090634
      Sn 10.23271901 1.63228947 13.50295163
      Sn 13.64362534 3.26506871 13.50301985
      O 11.55161416 1.63228947 16.91382385
      O 8.91382385 1.63228947 16.91382385
      O 13.64362534 3.26506871 15.59499692
      O 10.23271901 3.26506871 14.82181267
      Sn 6.82181267 1.63228947 16.91385796
      Sn 10.23271901 3.26506871 16.91392618
      O 8.14070782 1.63228947 20.32473019
      O 12.32473019 1.63228947 20.32473019
      O 10.23271901 3.26506871 19.00590326
      O 13.64362534 3.26506871 18.23271901
      Sn 10.23271901 1.63228947 20.3247643
      Sn 13.64362534 3.26506871 20.32483252
      O 11.55161416 1.63228947 23.73563653
      O 8.91382385 1.63228947 23.73563653
      O 13.64362534 3.26506871 22.41680959
      O 10.23271901 3.26506871 21.64362534
      Sn 6.82181267 1.63228947 23.73567063
      Sn 10.23271901 3.26506871 23.73573885
      O 13.64362534 3.26506871 25.05453168
      O 11.55161416 4.89745613 10.09201118
      O 8.91382385 4.89745613 10.09201118
      O 6.82181267 6.53023538 8.77318425
      Sn 13.64362534 4.89745613 10.09204529
      Sn 10.23271901 6.53023538 10.09211351
      O 8.14070782 4.89745613 13.50291752
      O 12.32473019 4.89745613 13.50291752
      O 10.23271901 6.53023538 12.18409058
      O 13.64362534 6.53023538 11.41090634
      Sn 10.23271901 4.89745613 13.50295163
      Sn 13.64362534 6.53023538 13.50301985
      O 11.55161416 4.89745613 16.91382385
      O 8.91382385 4.89745613 16.91382385
      O 13.64362534 6.53023538 15.59499692
      O 10.23271901 6.53023538 14.82181267
      Sn 6.82181267 4.89745613 16.91385796
      Sn 10.23271901 6.53023538 16.91392618
      O 8.14070782 4.89745613 20.32473019
      O 12.32473019 4.89745613 20.32473019
      O 10.23271901 6.53023538 19.00590326
      O 13.64362534 6.53023538 18.23271901
      Sn 10.23271901 4.89745613 20.3247643
      Sn 13.64362534 6.53023538 20.32483252
      O 11.55161416 4.89745613 23.73563653
      O 8.91382385 4.89745613 23.73563653
      O 13.64362534 6.53023538 22.41680959
      O 10.23271901 6.53023538 21.64362534
      Sn 6.82181267 4.89745613 23.73567063
      Sn 10.23271901 6.53023538 23.73573885
      O 13.64362534 6.53023538 25.05453168
      O 11.55161416 8.1626228 10.09201118
      O 8.91382385 8.1626228 10.09201118
      O 6.82181267 9.79540204 8.77318425
      Sn 13.64362534 8.1626228 10.09204529
      Sn 10.23271901 9.79540204 10.09211351
      O 8.14070782 8.1626228 13.50291752
      O 12.32473019 8.1626228 13.50291752
      O 10.23271901 9.79540204 12.18409058
      O 13.64362534 9.79540204 11.41090634
      Sn 10.23271901 8.1626228 13.50295163
      Sn 13.64362534 9.79540204 13.50301985
      O 11.55161416 8.1626228 16.91382385
      O 8.91382385 8.1626228 16.91382385
      O 13.64362534 9.79540204 15.59499692
      O 10.23271901 9.79540204 14.82181267
      Sn 6.82181267 8.1626228 16.91385796
      Sn 10.23271901 9.79540204 16.91392618
      O 8.14070782 8.1626228 20.32473019
      O 12.32473019 8.1626228 20.32473019
      O 10.23271901 9.79540204 19.00590326
      O 13.64362534 9.79540204 18.23271901
      Sn 10.23271901 8.1626228 20.3247643
      Sn 13.64362534 9.79540204 20.32483252
      O 11.55161416 8.1626228 23.73563653
      O 8.91382385 8.1626228 23.73563653
      O 13.64362534 9.79540204 22.41680959
      O 10.23271901 9.79540204 21.64362534
      Sn 6.82181267 8.1626228 23.73567063
      Sn 10.23271901 9.79540204 23.73573885
      O 13.64362534 9.79540204 25.05453168
      O 11.55161416 11.42778947 10.09201118
      O 8.91382385 11.42778947 10.09201118
      O 6.82181267 13.06056871 8.77318425
      Sn 13.64362534 11.42778947 10.09204529
      Sn 10.23271901 13.06056871 10.09211351
      O 8.14070782 11.42778947 13.50291752
      O 12.32473019 11.42778947 13.50291752
      O 10.23271901 13.06056871 12.18409058
      O 13.64362534 13.06056871 11.41090634
      Sn 10.23271901 11.42778947 13.50295163
      Sn 13.64362534 13.06056871 13.50301985
      O 11.55161416 11.42778947 16.91382385
      O 8.91382385 11.42778947 16.91382385
      O 13.64362534 13.06056871 15.59499692
      O 10.23271901 13.06056871 14.82181267
      Sn 6.82181267 11.42778947 16.91385796
      Sn 10.23271901 13.06056871 16.91392618
      O 8.14070782 11.42778947 20.32473019
      O 12.32473019 11.42778947 20.32473019
      O 10.23271901 13.06056871 19.00590326
      O 13.64362534 13.06056871 18.23271901
      Sn 10.23271901 11.42778947 20.3247643
      Sn 13.64362534 13.06056871 20.32483252
      O 11.55161416 11.42778947 23.73563653
      O 8.91382385 11.42778947 23.73563653
      O 13.64362534 13.06056871 22.41680959
      O 10.23271901 13.06056871 21.64362534
      Sn 6.82181267 11.42778947 23.73567063
      Sn 10.23271901 13.06056871 23.73573885
      O 13.64362534 13.06056871 25.05453168
    &END COORD
    &KIND H
      POTENTIAL GTH-PBE-q1
      BASIS_SET DZVP-MOLOPT-SR-GTH
    &END KIND
    &KIND O
      POTENTIAL GTH-PBE-q6
      BASIS_SET DZVP-MOLOPT-SR-GTH
    &END KIND
    &KIND Sn
      POTENTIAL GTH-PBE-q4
      BASIS_SET DZVP-MOLOPT-SR-GTH
    &END KIND
  &END SUBSYS
  &PRINT
    &FORCES ON
    &END FORCES
    &STRESS_TENSOR ON
    &END STRESS_TENSOR
  &END PRINT
&END FORCE_EVAL
