&GLOBAL
  PRINT_LEVEL medium
  PROJECT_NAME SnO2
  RUN_TYPE GEO_OPT
  WALLTIME 86000
&END GLOBAL
&MOTION
  &CELL_OPT
    KEEP_ANGLES .TRUE.
  &END CELL_OPT
&END MOTION
&FORCE_EVAL
  METHOD Quickstep
  STRESS_TENSOR ANALYTICAL
  &DFT
    POTENTIAL_FILE_NAME GTH_POTENTIALS
    BASIS_SET_FILE_NAME BASIS_MOLOPT
    &SCF
      MAX_SCF 50
      EPS_SCF 1.0E-6
      &OT
        MINIMIZER DIIS
        PRECONDITIONER FULL_SINGLE_INVERSE
        ENERGY_GAP 0.1
      &END OT
      &OUTER_SCF
        EPS_SCF 1.0E-6
        MAX_SCF 10
      &END OUTER_SCF
    &END SCF
    &QS
      EPS_DEFAULT 1.0E-13
      EXTRAPOLATION ASPC
      EXTRAPOLATION_ORDER 2
    &END QS
    &MGRID
      NGRIDS 4
      CUTOFF 400
      REL_CUTOFF 60
    &END MGRID
    &XC
      &XC_FUNCTIONAL PBE
      &END XC_FUNCTIONAL
      &VDW_POTENTIAL
        POTENTIAL_TYPE PAIR_POTENTIAL
        &PAIR_POTENTIAL
          TYPE DFTD3
          PARAMETER_FILE_NAME dftd3.dat
          REFERENCE_FUNCTIONAL PBE
        &END PAIR_POTENTIAL
      &END VDW_POTENTIAL
    &END XC
    &PRINT
      &V_HARTREE_CUBE
        ADD_LAST NUMERIC
        COMMON_ITERATION_LEVELS 0
        APPEND .TRUE.
        &EACH
          GEO_OPT 0
        &END EACH
      &END V_HARTREE_CUBE
      &PDOS
        ADD_LAST NUMERIC
        COMMON_ITERATION_LEVELS 0
        COMPONENTS 
        APPEND .TRUE.
        NLUMO -1
        &EACH
          GEO_OPT 0
        &END EACH
      &END PDOS
    &END PRINT
  &END DFT
  &SUBSYS
    &CELL
      A 13.644 0.0 0.0
      B 0.0 13.061 0.0
      C 0.0 0.0 38.558
      PERIODIC XYZ
    &END CELL
    &COORD
      O 4.67934624 1.632625 9.9614593
      O 2.14251732 1.632625 9.9614593
      O 6.82186356 3.26511939 8.74456882
      Sn 6.82186356 1.632625 9.92637152
      Sn 3.41086356 3.26511939 10.2545001
      O 1.3350654 1.632625 13.50069812
      O 5.48666172 1.632625 13.50069812
      O 3.41086356 3.26511939 12.2730114
      O 6.82186356 3.26511939 11.39311784
      Sn 3.41086356 1.632625 13.61367306
      Sn 6.82186356 3.26511939 13.44748808
      O 4.72259772 1.632625 16.946241
      O 2.0991294 1.632625 16.946241
      O 6.82186356 3.26511939 15.57280504
      O 3.41086356 3.26511939 14.88415916
      Sn 0.0 1.632625 16.87953566
      Sn 3.41086356 3.26511939 16.98055762
      O 1.31105196 1.632625 20.32045158
      O 5.5108116 1.632625 20.32045158
      O 3.41086356 3.26511939 19.04919432
      O 6.82186356 3.26511939 18.20091832
      Sn 3.41086356 1.632625 20.37713184
      Sn 6.82186356 3.26511939 20.26878386
      O 4.74497388 1.632625 23.70430166
      O 2.07675324 1.632625 23.70430166
      O 6.82186356 3.26511939 22.35284376
      O 3.41086356 3.26511939 21.68424804
      Sn 0.0 1.632625 23.62487218
      Sn 3.411 3.26511939 23.7999255
      O 1.26807336 1.632625 27.30793234
      O 5.5537902 1.632625 27.30831792
      O 3.41086356 3.26511939 25.86586314
      O 6.82186356 3.26511939 24.98327052
      Sn 3.411 1.63249439 27.33993548
      Sn 0.0 3.26511939 27.00293856
      O 3.41086356 3.26511939 28.52212376
      O 4.67934624 4.89774439 9.9614593
      O 2.14251732 4.89774439 9.9614593
      O 6.82186356 6.53036939 8.74456882
      Sn 6.82186356 4.89774439 9.92637152
      Sn 3.41086356 6.53036939 10.2545001
      O 1.3350654 4.89774439 13.50069812
      O 5.48666172 4.89774439 13.50069812
      O 3.41086356 6.53036939 12.2730114
      O 6.82186356 6.53036939 11.39311784
      Sn 3.41086356 4.89774439 13.61367306
      Sn 6.82186356 6.53036939 13.44748808
      O 4.72259772 4.89774439 16.946241
      O 2.0991294 4.89774439 16.946241
      O 6.82186356 6.53036939 15.57280504
      O 3.41086356 6.53036939 14.88415916
      Sn 0.0 4.89774439 16.87953566
      Sn 3.41086356 6.53036939 16.98055762
      O 1.31105196 4.89774439 20.32045158
      O 5.5108116 4.89774439 20.32045158
      O 3.41086356 6.53036939 19.04919432
      O 6.82186356 6.53036939 18.20091832
      Sn 3.41086356 4.89774439 20.37713184
      Sn 6.82186356 6.53036939 20.26878386
      O 4.74497388 4.89774439 23.70430166
      O 2.07675324 4.89774439 23.70430166
      O 6.82186356 6.53036939 22.35284376
      O 3.41086356 6.53036939 21.68424804
      Sn 0.0 4.89774439 23.62487218
      Sn 3.41086356 6.53036939 23.7999255
      O 1.26807336 4.89761378 27.30793234
      O 5.5537902 4.897875 27.30793234
      O 3.411 6.53036939 25.86586314
      O 6.82172712 6.53036939 24.98327052
      Sn 3.41086356 4.89774439 27.33993548
      Sn 0.0 6.53036939 27.00293856
      O 3.411 6.53036939 28.52212376
      O 4.67934624 8.16286378 9.9614593
      O 2.14251732 8.16286378 9.9614593
      O 6.82186356 9.79548878 8.74456882
      Sn 6.82186356 8.16286378 9.92637152
      Sn 3.41086356 9.79548878 10.2545001
      O 1.3350654 8.16286378 13.50069812
      O 5.48666172 8.16286378 13.50069812
      O 3.41086356 9.79548878 12.2730114
      O 6.82186356 9.79548878 11.39311784
      Sn 3.41086356 8.16286378 13.61367306
      Sn 6.82186356 9.79548878 13.44748808
      O 4.72259772 8.16286378 16.946241
      O 2.0991294 8.16286378 16.946241
      O 6.82186356 9.79548878 15.57280504
      O 3.41086356 9.79548878 14.88415916
      Sn 0.0 8.16286378 16.87953566
      Sn 3.41086356 9.79548878 16.98055762
      O 1.31105196 8.16286378 20.32045158
      O 5.5108116 8.16286378 20.32045158
      O 3.41086356 9.79548878 19.04919432
      O 6.82186356 9.79548878 18.20091832
      Sn 3.41086356 8.16286378 20.37713184
      Sn 6.82186356 9.79548878 20.26878386
      O 4.74497388 8.16299439 23.70430166
      O 2.07688968 8.16286378 23.70430166
      O 6.82186356 9.79548878 22.35284376
      O 3.41086356 9.79548878 21.68424804
      Sn 0.0 8.16286378 23.62487218
      Sn 3.41086356 9.79548878 23.7999255
      O 1.26793692 8.16286378 27.30831792
      O 5.5537902 8.16286378 27.30793234
      O 3.41086356 9.79548878 25.86586314
      O 6.82172712 9.79548878 24.98327052
      Sn 3.41086356 8.16299439 27.33993548
      Sn 0.0 9.79548878 27.00293856
      O 3.411 9.79548878 28.52250934
      O 4.67934624 11.42811378 9.9614593
      O 2.14251732 11.42811378 9.9614593
      O 6.82186356 13.06060817 8.74456882
      Sn 6.82186356 11.42811378 9.92637152
      Sn 3.41086356 13.06060817 10.2545001
      O 1.3350654 11.42811378 13.50069812
      O 5.48666172 11.42811378 13.50069812
      O 3.41086356 13.06060817 12.2730114
      O 6.82186356 13.06060817 11.39311784
      Sn 3.41086356 11.42811378 13.61367306
      Sn 6.82186356 13.06060817 13.44748808
      O 4.72273416 11.42811378 16.946241
      O 2.0991294 11.42811378 16.946241
      O 6.82186356 13.06060817 15.57280504
      O 3.41086356 13.06060817 14.88415916
      Sn 0.0 11.42811378 16.87953566
      Sn 3.41086356 13.06060817 16.98055762
      O 1.31105196 11.42811378 20.32045158
      O 5.5108116 11.42811378 20.32045158
      O 3.41086356 13.06060817 19.04919432
      O 6.82186356 13.06060817 18.20091832
      Sn 3.41086356 11.42811378 20.37713184
      Sn 6.82186356 13.06060817 20.26878386
      O 4.74497388 11.42798317 23.70430166
      O 2.07688968 11.42811378 23.70430166
      O 6.82186356 13.06060817 22.35284376
      O 3.41086356 13.06060817 21.68424804
      Sn 0.0 11.42811378 23.62487218
      Sn 3.411 13.06060817 23.7999255
      O 1.26807336 11.42811378 27.30831792
      O 5.5537902 11.42798317 27.30831792
      O 3.41086356 13.06073878 25.86586314
      O 6.82186356 13.06060817 24.98327052
      Sn 3.41086356 11.42811378 27.33993548
      Sn 0.0 13.06060817 27.00293856
      O 3.41086356 13.06060817 28.52250934
      O 11.5012098 1.632625 9.9614593
      O 8.96424444 1.632625 9.9614593
      O 13.64359068 3.26511939 8.74456882
      Sn 13.64359068 1.632625 9.92637152
      Sn 10.23272712 3.26511939 10.2545001
      O 8.15692896 1.632625 13.50069812
      O 12.30852528 1.632625 13.50069812
      O 10.23272712 3.26511939 12.2730114
      O 13.64359068 3.26511939 11.39311784
      Sn 10.23272712 1.632625 13.61367306
      Sn 13.64359068 3.26511939 13.44748808
      O 11.54446128 1.632625 16.946241
      O 8.92099296 1.632625 16.946241
      O 13.64359068 3.26511939 15.57280504
      O 10.23272712 3.26511939 14.88415916
      Sn 6.82186356 1.632625 16.87953566
      Sn 10.23272712 3.26511939 16.98055762
      O 8.13277908 1.632625 20.32045158
      O 12.33267516 1.632625 20.32045158
      O 10.23272712 3.26511939 19.04919432
      O 13.64359068 3.26511939 18.20091832
      Sn 10.23272712 1.632625 20.37751742
      Sn 13.64359068 3.26511939 20.26878386
      O 11.56683744 1.632625 23.70430166
      O 8.8986168 1.632625 23.70430166
      O 13.64359068 3.26511939 22.35284376
      O 10.23272712 3.26511939 21.68424804
      Sn 6.82172712 1.632625 23.62487218
      Sn 10.23272712 3.26511939 23.7999255
      O 8.08993692 1.632625 27.30793234
      O 12.37565376 1.632625 27.30831792
      O 10.23272712 3.26511939 25.86586314
      O 13.64372712 3.26511939 24.98327052
      Sn 10.23286356 1.63249439 27.33993548
      Sn 6.82172712 3.26511939 27.00293856
      O 10.23272712 3.26511939 28.52212376
      O 11.5012098 4.89774439 9.9614593
      O 8.96424444 4.89774439 9.9614593
      O 13.64359068 6.53036939 8.74456882
      Sn 13.64359068 4.89774439 9.92637152
      Sn 10.23272712 6.53036939 10.2545001
      O 8.15692896 4.89774439 13.50069812
      O 12.30852528 4.89774439 13.50069812
      O 10.23272712 6.53036939 12.2730114
      O 13.64359068 6.53036939 11.39311784
      Sn 10.23272712 4.89774439 13.61367306
      Sn 13.64359068 6.53036939 13.44748808
      O 11.54446128 4.89774439 16.946241
      O 8.92099296 4.89774439 16.946241
      O 13.64359068 6.53036939 15.57280504
      O 10.23272712 6.53036939 14.88415916
      Sn 6.82186356 4.89774439 16.87953566
      Sn 10.23272712 6.53036939 16.98055762
      O 8.13277908 4.89774439 20.32045158
      O 12.33267516 4.89774439 20.32045158
      O 10.23272712 6.53036939 19.04919432
      O 13.64359068 6.53036939 18.20091832
      Sn 10.23272712 4.89774439 20.37713184
      Sn 13.64359068 6.53036939 20.26878386
      O 11.56683744 4.89774439 23.70430166
      O 8.8986168 4.89774439 23.70430166
      O 13.64359068 6.53036939 22.35284376
      O 10.23272712 6.53036939 21.68424804
      Sn 6.82186356 4.89774439 23.62487218
      Sn 10.23272712 6.53036939 23.7999255
      O 8.08980048 4.89761378 27.30793234
      O 12.37565376 4.897875 27.30793234
      O 10.23272712 6.53036939 25.86586314
      O 13.64359068 6.53036939 24.98327052
      Sn 10.23272712 4.89774439 27.33993548
      Sn 6.82186356 6.53036939 27.00293856
      O 10.23272712 6.53036939 28.52212376
      O 11.5012098 8.16286378 9.9614593
      O 8.96424444 8.16286378 9.9614593
      O 13.64359068 9.79548878 8.74456882
      Sn 13.64359068 8.16286378 9.92637152
      Sn 10.23272712 9.79548878 10.2545001
      O 8.15692896 8.16286378 13.50069812
      O 12.30852528 8.16286378 13.50069812
      O 10.23272712 9.79548878 12.2730114
      O 13.64359068 9.79548878 11.39311784
      Sn 10.23272712 8.16286378 13.61367306
      Sn 13.64359068 9.79548878 13.44748808
      O 11.54446128 8.16286378 16.946241
      O 8.92099296 8.16286378 16.946241
      O 13.64359068 9.79548878 15.57280504
      O 10.23272712 9.79548878 14.88415916
      Sn 6.82186356 8.16286378 16.87953566
      Sn 10.23272712 9.79548878 16.98055762
      O 8.13277908 8.16286378 20.32045158
      O 12.33267516 8.16286378 20.32045158
      O 10.23272712 9.79548878 19.04919432
      O 13.64359068 9.79548878 18.20091832
      Sn 10.23272712 8.16299439 20.37751742
      Sn 13.64359068 9.79548878 20.26878386
      O 11.56683744 8.16299439 23.70430166
      O 8.8986168 8.16299439 23.70430166
      O 13.64359068 9.79548878 22.35284376
      O 10.23272712 9.79548878 21.68424804
      Sn 6.82186356 8.16286378 23.62487218
      Sn 10.23272712 9.79548878 23.7999255
      O 8.08980048 8.16286378 27.30831792
      O 12.37551732 8.16299439 27.30831792
      O 10.23272712 9.79548878 25.86586314
      O 13.64359068 9.79548878 24.98327052
      Sn 10.23259068 8.16299439 27.33993548
      Sn 6.82186356 9.79548878 27.00293856
      O 10.23272712 9.79548878 28.52250934
      O 11.5012098 11.42811378 9.9614593
      O 8.96424444 11.42811378 9.9614593
      O 13.64359068 13.06060817 8.74456882
      Sn 13.64359068 11.42811378 9.92637152
      Sn 10.23272712 13.06060817 10.2545001
      O 8.15692896 11.42811378 13.50069812
      O 12.30852528 11.42811378 13.50069812
      O 10.23272712 13.06060817 12.2730114
      O 13.64359068 13.06060817 11.39311784
      Sn 10.23272712 11.42811378 13.61367306
      Sn 13.64359068 13.06060817 13.44748808
      O 11.54446128 11.42811378 16.946241
      O 8.92099296 11.42811378 16.946241
      O 13.64359068 13.06060817 15.57280504
      O 10.23272712 13.06060817 14.88415916
      Sn 6.82186356 11.42811378 16.87953566
      Sn 10.23272712 13.06060817 16.98055762
      O 8.13277908 11.42811378 20.32045158
      O 12.33267516 11.42811378 20.32045158
      O 10.23272712 13.06073878 19.04919432
      O 13.64359068 13.06060817 18.20091832
      Sn 10.23272712 11.42811378 20.37751742
      Sn 13.64359068 13.06060817 20.26878386
      O 11.56683744 11.42798317 23.70430166
      O 8.8986168 11.42811378 23.70430166
      O 13.64359068 13.06060817 22.35284376
      O 10.23272712 13.06060817 21.68424804
      Sn 6.82186356 11.42811378 23.62487218
      Sn 10.23272712 13.06073878 23.7999255
      O 8.08980048 11.42811378 27.30831792
      O 12.37565376 11.42798317 27.30831792
      O 10.23272712 13.06073878 25.86586314
      O 13.64372712 13.06060817 24.98327052
      Sn 10.23272712 11.42811378 27.33993548
      Sn 6.82172712 13.06060817 27.00293856
      O 10.23259068 13.06060817 28.52250934
      O 6.82186356 6.53036939 29.00293856
      H 5.86051795 6.64840672 29.00293856
      H 6.93990089 5.56902378 29.00293856
      O 10.23272712 6.53036939 8.2545001
      H 10.11468979 5.56902378 8.2545001
      H 11.19407273 6.64840672 8.2545001
    &END COORD
    &KIND H
      POTENTIAL GTH-PBE-q1
      BASIS_SET DZVP-MOLOPT-SR-GTH
    &END KIND
    &KIND O
      POTENTIAL GTH-PBE-q6
      BASIS_SET DZVP-MOLOPT-SR-GTH
    &END KIND
    &KIND Sn
      POTENTIAL GTH-PBE-q4
      BASIS_SET DZVP-MOLOPT-SR-GTH
    &END KIND
  &END SUBSYS
  &PRINT
    &FORCES ON
    &END FORCES
    &STRESS_TENSOR ON
    &END STRESS_TENSOR
  &END PRINT
&END FORCE_EVAL
